c turning on binary mode checking
c parsing input formula with 2610401 variables and 9433555 clauses
c finished parsing, read 232496792 bytes from proof file
c detected empty clause; start verification via backward checking
c 476 of 9433555 clauses in core                            
c 284 of 6231378 lemmas in core using 1135 resolution steps
c 0 RAT lemmas in core; 3 redundant literals in core lemmas
s VERIFIED
c verification time: 39.119 seconds
